c A SAT instance generated from a 3-CNF formula that had 44 clauses and 11 variables
p cnf 11 44
11 -1 7 0
2 1 3 0
7 -8 6 0
1 7 4 0
11 1 -6 0
11 -10 -3 0
-10 6 11 0
2 -3 4 0
-3 -10 -11 0
-4 -5 3 0
-1 7 -10 0
-1 11 -4 0
-1 -6 5 0
10 -6 -4 0
4 2 -8 0
-1 3 4 0
5 7 4 0
7 -11 -8 0
10 -1 9 0
-5 11 -6 0
6 -9 1 0
-1 9 5 0
8 5 6 0
8 -7 5 0
-8 -1 -4 0
-3 2 -4 0
-7 2 -5 0
-2 9 -8 0
7 -8 10 0
-11 7 2 0
-7 10 -5 0
1 10 -6 0
-2 -11 -7 0
-8 11 10 0
6 -8 -2 0
6 4 7 0
11 10 -6 0
-10 -2 7 0
-1 2 -7 0
-2 10 4 0
4 -11 -5 0
-7 3 -5 0
-6 -4 -1 0
-10 1 -4 0
